NAME: tsp10_18
COMMENT: 10-tsp problem (Padberg/Rinaldi)
TYPE: TSP
DIMENSION: 10
EDGE_WEIGHT_TYPE : EUC_2D
NODE_COORD_SECTION
1 28 3
2 21 5
3 24 38
4 23 14
5 22 36
6 26 3
7 35 8
8 1 14
9 40 31
10 38 6
